(set-logic QF_NRA)
(set-info :source |Benchmarks generated from hycomp (https://es-static.fbk.eu/tools/hycomp/). BMC instances of non-linear hybrid automata taken from: Alessandro Cimatti, Sergio Mover, Stefano Tonetta, A quantifier-free SMT encoding of non-linear hybrid automata, FMCAD 2012 and Alessandro Cimatti, Sergio Mover, Stefano Tonetta, Quantier-free encoding of invariants for Hybrid Systems, Formal Methods in System Design. This instance solves a BMC problem of depth 3 and uses the quantifier free encoding with equivalences encoding. Contacts: Sergio Mover (mover@fbk.eu), Stefano Tonetta (tonettas@fbk.eu), Alessandro Cimatti (cimatti@fbk.eu).|)
(set-info :smt-lib-version 2.0)
(set-info :category "industrial")
(set-info :status unsat)
;; MathSAT API call trace
;; generated on Mon Mar 19 10:46:50 2012
(declare-fun b.counter.3__AT1 () Bool)
(declare-fun b.counter.1__AT3 () Bool)
(declare-fun b.EVENT.1__AT0 () Bool)
(declare-fun b.x__AT3 () Real)
(declare-fun b.x__AT0 () Real)
(declare-fun b.time__AT3 () Real)
(declare-fun b.counter.2__AT3 () Bool)
(declare-fun b.speed_x__AT1 () Real)
(declare-fun b.delta__AT3 () Real)
(declare-fun b.counter.3__AT3 () Bool)
(declare-fun b.time__AT1 () Real)
(declare-fun g__AT0 () Real)
(declare-fun b.y__AT0 () Real)
(declare-fun b.EVENT.0__AT1 () Bool)
(declare-fun b.speed_y__AT1 () Real)
(declare-fun b.EVENT.0__AT3 () Bool)
(declare-fun b.delta__AT1 () Real)
(declare-fun b.counter.0__AT0 () Bool)
(declare-fun b.EVENT.1__AT1 () Bool)
(declare-fun b.EVENT.1__AT3 () Bool)
(declare-fun b.counter.1__AT0 () Bool)
(declare-fun b.delta__AT0 () Real)
(declare-fun b.speed_x__AT3 () Real)
(declare-fun b.EVENT.0__AT0 () Bool)
(declare-fun b.x__AT1 () Real)
(declare-fun b.event_is_timed__AT2 () Bool)
(declare-fun b.speed_y__AT0 () Real)
(declare-fun b.speed_y__AT3 () Real)
(declare-fun b.time__AT2 () Real)
(declare-fun b.y__AT2 () Real)
(declare-fun b.delta__AT2 () Real)
(declare-fun b.counter.0__AT2 () Bool)
(declare-fun b.x__AT2 () Real)
(declare-fun b.counter.3__AT0 () Bool)
(declare-fun b.EVENT.0__AT2 () Bool)
(declare-fun b.counter.1__AT2 () Bool)
(declare-fun b.EVENT.1__AT2 () Bool)
(declare-fun b.counter.2__AT2 () Bool)
(declare-fun b.event_is_timed__AT0 () Bool)
(declare-fun b.counter.3__AT2 () Bool)
(declare-fun speed_loss__AT0 () Real)
(declare-fun b.y__AT1 () Real)
(declare-fun b.speed_x__AT2 () Real)
(declare-fun b.event_is_timed__AT1 () Bool)
(declare-fun b.counter.0__AT1 () Bool)
(declare-fun b.event_is_timed__AT3 () Bool)
(declare-fun b.speed_x__AT0 () Real)
(declare-fun b.speed_y__AT2 () Real)
(declare-fun b.counter.1__AT1 () Bool)
(declare-fun b.y__AT3 () Real)
(declare-fun b.time__AT0 () Real)
(declare-fun b.counter.2__AT0 () Bool)
(declare-fun b.counter.2__AT1 () Bool)
(declare-fun b.counter.0__AT3 () Bool)
(assert (let ((.def_71 (* (- 1.0) g__AT0)))
(let ((.def_72 (* (/ 1 2) .def_71)))
(let ((.def_80 (* 2.0 .def_72)))
(let ((.def_613 (* .def_80 b.delta__AT3)))
(let ((.def_614 (+ b.speed_y__AT3 .def_613)))
(let ((.def_618 (<= .def_614 0.0 )))
(let ((.def_617 (<= b.speed_y__AT3 0.0 )))
(let ((.def_619 (and .def_617 .def_618)))
(let ((.def_615 (<= 0.0 .def_614)))
(let ((.def_612 (<= 0.0 b.speed_y__AT3)))
(let ((.def_616 (and .def_612 .def_615)))
(let ((.def_620 (or .def_616 .def_619)))
(let ((.def_607 (* b.speed_y__AT3 b.delta__AT3)))
(let ((.def_605 (* b.delta__AT3 b.delta__AT3)))
(let ((.def_606 (* .def_72 .def_605)))
(let ((.def_608 (+ .def_606 .def_607)))
(let ((.def_609 (+ b.y__AT3 .def_608)))
(let ((.def_610 (<= 0.0 .def_609)))
(let ((.def_596 (<= 0.0 b.y__AT3)))
(let ((.def_611 (and .def_596 .def_610)))
(let ((.def_621 (and .def_611 .def_620)))
(let ((.def_52 (<= g__AT0 10.0 )))
(let ((.def_51 (<= 8.0 g__AT0)))
(let ((.def_53 (and .def_51 .def_52)))
(let ((.def_622 (and .def_53 .def_621)))
(let ((.def_60 (<= speed_loss__AT0 (/ 1 2))))
(let ((.def_57 (<= (/ 1 10) speed_loss__AT0)))
(let ((.def_61 (and .def_57 .def_60)))
(let ((.def_623 (and .def_61 .def_622)))
(let ((.def_323 (not b.counter.0__AT2)))
(let ((.def_311 (not b.counter.1__AT2)))
(let ((.def_600 (and .def_311 .def_323)))
(let ((.def_318 (not b.counter.2__AT2)))
(let ((.def_601 (and .def_318 .def_600)))
(let ((.def_62 (and .def_53 .def_61)))
(let ((.def_597 (and .def_62 .def_596)))
(let ((.def_593 (not b.EVENT.0__AT3)))
(let ((.def_591 (not b.EVENT.1__AT3)))
(let ((.def_594 (or .def_591 .def_593)))
(let ((.def_6 (not b.counter.0__AT3)))
(let ((.def_4 (not b.counter.1__AT3)))
(let ((.def_584 (or .def_4 .def_6)))
(let ((.def_588 (or b.counter.3__AT3 .def_584)))
(let ((.def_585 (or b.counter.2__AT3 .def_584)))
(let ((.def_9 (not b.counter.2__AT3)))
(let ((.def_583 (or .def_6 .def_9)))
(let ((.def_586 (and .def_583 .def_585)))
(let ((.def_505 (not b.counter.3__AT3)))
(let ((.def_587 (or .def_505 .def_586)))
(let ((.def_589 (and .def_587 .def_588)))
(let ((.def_595 (and .def_589 .def_594)))
(let ((.def_598 (and .def_595 .def_597)))
(let ((.def_578 (<= 0.0 b.delta__AT2)))
(let ((.def_421 (not b.EVENT.0__AT2)))
(let ((.def_419 (not b.EVENT.1__AT2)))
(let ((.def_479 (and .def_419 .def_421)))
(let ((.def_480 (not .def_479)))
(let ((.def_579 (or .def_480 .def_578)))
(let ((.def_580 (or b.EVENT.1__AT2 .def_579)))
(let ((.def_527 (= b.counter.0__AT3 b.counter.0__AT2)))
(let ((.def_525 (= b.counter.1__AT3 b.counter.1__AT2)))
(let ((.def_523 (= b.counter.2__AT3 b.counter.2__AT2)))
(let ((.def_522 (= b.counter.3__AT2 b.counter.3__AT3)))
(let ((.def_524 (and .def_522 .def_523)))
(let ((.def_526 (and .def_524 .def_525)))
(let ((.def_528 (and .def_526 .def_527)))
(let ((.def_575 (or .def_480 .def_528)))
(let ((.def_576 (or b.EVENT.1__AT2 .def_575)))
(let ((.def_535 (= b.x__AT2 b.x__AT3)))
(let ((.def_532 (= b.y__AT2 b.y__AT3)))
(let ((.def_569 (and .def_532 .def_535)))
(let ((.def_460 (= b.speed_x__AT2 b.speed_x__AT3)))
(let ((.def_570 (and .def_460 .def_569)))
(let ((.def_521 (= b.speed_y__AT2 b.speed_y__AT3)))
(let ((.def_571 (and .def_521 .def_570)))
(let ((.def_566 (= b.delta__AT2 0.0 )))
(let ((.def_567 (and .def_479 .def_566)))
(let ((.def_568 (not .def_567)))
(let ((.def_572 (or .def_568 .def_571)))
(let ((.def_573 (or b.EVENT.1__AT2 .def_572)))
(let ((.def_546 (= b.time__AT2 b.time__AT3)))
(let ((.def_558 (and .def_535 .def_546)))
(let ((.def_559 (and .def_532 .def_558)))
(let ((.def_560 (and .def_460 .def_559)))
(let ((.def_561 (and .def_521 .def_560)))
(let ((.def_562 (and .def_528 .def_561)))
(let ((.def_563 (or .def_419 .def_562)))
(let ((.def_549 (* (- 1.0) b.time__AT3)))
(let ((.def_552 (+ b.delta__AT2 .def_549)))
(let ((.def_553 (+ b.time__AT2 .def_552)))
(let ((.def_554 (= .def_553 0.0 )))
(let ((.def_555 (or .def_480 .def_554)))
(let ((.def_556 (or b.EVENT.1__AT2 .def_555)))
(let ((.def_547 (or .def_479 .def_546)))
(let ((.def_548 (or b.EVENT.1__AT2 .def_547)))
(let ((.def_557 (and .def_548 .def_556)))
(let ((.def_564 (and .def_557 .def_563)))
(let ((.def_542 (= .def_480 b.event_is_timed__AT3)))
(let ((.def_540 (= b.event_is_timed__AT2 .def_479)))
(let ((.def_543 (and .def_540 .def_542)))
(let ((.def_529 (and .def_521 .def_528)))
(let ((.def_440 (<= 0.0 b.speed_y__AT2)))
(let ((.def_483 (not .def_440)))
(let ((.def_482 (= b.y__AT2 0.0 )))
(let ((.def_484 (and .def_482 .def_483)))
(let ((.def_530 (or .def_484 .def_529)))
(let ((.def_496 (or .def_6 b.counter.0__AT2)))
(let ((.def_495 (or b.counter.0__AT3 .def_323)))
(let ((.def_497 (and .def_495 .def_496)))
(let ((.def_498 (and .def_4 .def_497)))
(let ((.def_499 (or b.counter.1__AT2 .def_498)))
(let ((.def_494 (or b.counter.1__AT3 .def_311)))
(let ((.def_500 (and .def_494 .def_499)))
(let ((.def_513 (and .def_9 .def_500)))
(let ((.def_514 (or b.counter.2__AT2 .def_513)))
(let ((.def_508 (and .def_4 .def_323)))
(let ((.def_509 (or b.counter.1__AT2 .def_508)))
(let ((.def_510 (and .def_494 .def_509)))
(let ((.def_511 (and b.counter.2__AT3 .def_510)))
(let ((.def_512 (or .def_318 .def_511)))
(let ((.def_515 (and .def_512 .def_514)))
(let ((.def_516 (and b.counter.3__AT3 .def_515)))
(let ((.def_517 (or b.counter.3__AT2 .def_516)))
(let ((.def_501 (and b.counter.2__AT3 .def_500)))
(let ((.def_502 (or b.counter.2__AT2 .def_501)))
(let ((.def_490 (or b.counter.1__AT3 b.counter.1__AT2)))
(let ((.def_488 (and .def_4 b.counter.0__AT3)))
(let ((.def_489 (or .def_311 .def_488)))
(let ((.def_491 (and .def_489 .def_490)))
(let ((.def_492 (and .def_9 .def_491)))
(let ((.def_493 (or .def_318 .def_492)))
(let ((.def_503 (and .def_493 .def_502)))
(let ((.def_506 (and .def_503 .def_505)))
(let ((.def_333 (not b.counter.3__AT2)))
(let ((.def_507 (or .def_333 .def_506)))
(let ((.def_518 (and .def_507 .def_517)))
(let ((.def_286 (* (- 1.0) b.speed_y__AT2)))
(let ((.def_130 (* (- 1.0) speed_loss__AT0)))
(let ((.def_131 (+ 1.0 .def_130)))
(let ((.def_486 (* .def_131 .def_286)))
(let ((.def_487 (= b.speed_y__AT3 .def_486)))
(let ((.def_519 (and .def_487 .def_518)))
(let ((.def_485 (not .def_484)))
(let ((.def_520 (or .def_485 .def_519)))
(let ((.def_531 (and .def_520 .def_530)))
(let ((.def_533 (and .def_531 .def_532)))
(let ((.def_534 (and .def_460 .def_533)))
(let ((.def_536 (and .def_534 .def_535)))
(let ((.def_537 (or .def_479 .def_536)))
(let ((.def_538 (or b.EVENT.1__AT2 .def_537)))
(let ((.def_470 (* (- 1.0) b.y__AT3)))
(let ((.def_435 (* b.speed_y__AT2 b.delta__AT2)))
(let ((.def_474 (+ .def_435 .def_470)))
(let ((.def_433 (* b.delta__AT2 b.delta__AT2)))
(let ((.def_434 (* .def_72 .def_433)))
(let ((.def_475 (+ .def_434 .def_474)))
(let ((.def_476 (+ b.y__AT2 .def_475)))
(let ((.def_477 (= .def_476 0.0 )))
(let ((.def_464 (* (- 1.0) b.speed_y__AT3)))
(let ((.def_462 (* .def_71 b.delta__AT2)))
(let ((.def_465 (+ .def_462 .def_464)))
(let ((.def_466 (+ b.speed_y__AT2 .def_465)))
(let ((.def_467 (= .def_466 0.0 )))
(let ((.def_455 (* (- 1.0) b.x__AT3)))
(let ((.def_453 (* b.speed_x__AT2 b.delta__AT2)))
(let ((.def_456 (+ .def_453 .def_455)))
(let ((.def_457 (+ b.x__AT2 .def_456)))
(let ((.def_458 (= .def_457 0.0 )))
(let ((.def_461 (and .def_458 .def_460)))
(let ((.def_468 (and .def_461 .def_467)))
(let ((.def_478 (and .def_468 .def_477)))
(let ((.def_481 (or .def_478 .def_480)))
(let ((.def_539 (and .def_481 .def_538)))
(let ((.def_544 (and .def_539 .def_543)))
(let ((.def_565 (and .def_544 .def_564)))
(let ((.def_574 (and .def_565 .def_573)))
(let ((.def_577 (and .def_574 .def_576)))
(let ((.def_581 (and .def_577 .def_580)))
(let ((.def_582 (and .def_419 .def_581)))
(let ((.def_599 (and .def_582 .def_598)))
(let ((.def_602 (and .def_599 .def_601)))
(let ((.def_441 (* .def_80 b.delta__AT2)))
(let ((.def_442 (+ b.speed_y__AT2 .def_441)))
(let ((.def_446 (<= .def_442 0.0 )))
(let ((.def_445 (<= b.speed_y__AT2 0.0 )))
(let ((.def_447 (and .def_445 .def_446)))
(let ((.def_443 (<= 0.0 .def_442)))
(let ((.def_444 (and .def_440 .def_443)))
(let ((.def_448 (or .def_444 .def_447)))
(let ((.def_436 (+ .def_434 .def_435)))
(let ((.def_437 (+ b.y__AT2 .def_436)))
(let ((.def_438 (<= 0.0 .def_437)))
(let ((.def_424 (<= 0.0 b.y__AT2)))
(let ((.def_439 (and .def_424 .def_438)))
(let ((.def_449 (and .def_439 .def_448)))
(let ((.def_450 (and .def_53 .def_449)))
(let ((.def_451 (and .def_61 .def_450)))
(let ((.def_147 (not b.counter.0__AT1)))
(let ((.def_135 (not b.counter.1__AT1)))
(let ((.def_428 (and .def_135 .def_147)))
(let ((.def_142 (not b.counter.2__AT1)))
(let ((.def_429 (and .def_142 .def_428)))
(let ((.def_425 (and .def_62 .def_424)))
(let ((.def_422 (or .def_419 .def_421)))
(let ((.def_412 (or .def_311 .def_323)))
(let ((.def_416 (or b.counter.3__AT2 .def_412)))
(let ((.def_413 (or b.counter.2__AT2 .def_412)))
(let ((.def_411 (or .def_318 .def_323)))
(let ((.def_414 (and .def_411 .def_413)))
(let ((.def_415 (or .def_333 .def_414)))
(let ((.def_417 (and .def_415 .def_416)))
(let ((.def_423 (and .def_417 .def_422)))
(let ((.def_426 (and .def_423 .def_425)))
(let ((.def_406 (<= 0.0 b.delta__AT1)))
(let ((.def_245 (not b.EVENT.0__AT1)))
(let ((.def_243 (not b.EVENT.1__AT1)))
(let ((.def_301 (and .def_243 .def_245)))
(let ((.def_302 (not .def_301)))
(let ((.def_407 (or .def_302 .def_406)))
(let ((.def_408 (or b.EVENT.1__AT1 .def_407)))
(let ((.def_355 (= b.counter.0__AT1 b.counter.0__AT2)))
(let ((.def_353 (= b.counter.1__AT1 b.counter.1__AT2)))
(let ((.def_351 (= b.counter.2__AT1 b.counter.2__AT2)))
(let ((.def_350 (= b.counter.3__AT1 b.counter.3__AT2)))
(let ((.def_352 (and .def_350 .def_351)))
(let ((.def_354 (and .def_352 .def_353)))
(let ((.def_356 (and .def_354 .def_355)))
(let ((.def_403 (or .def_302 .def_356)))
(let ((.def_404 (or b.EVENT.1__AT1 .def_403)))
(let ((.def_363 (= b.x__AT1 b.x__AT2)))
(let ((.def_360 (= b.y__AT1 b.y__AT2)))
(let ((.def_397 (and .def_360 .def_363)))
(let ((.def_282 (= b.speed_x__AT1 b.speed_x__AT2)))
(let ((.def_398 (and .def_282 .def_397)))
(let ((.def_349 (= b.speed_y__AT1 b.speed_y__AT2)))
(let ((.def_399 (and .def_349 .def_398)))
(let ((.def_394 (= b.delta__AT1 0.0 )))
(let ((.def_395 (and .def_301 .def_394)))
(let ((.def_396 (not .def_395)))
(let ((.def_400 (or .def_396 .def_399)))
(let ((.def_401 (or b.EVENT.1__AT1 .def_400)))
(let ((.def_374 (= b.time__AT1 b.time__AT2)))
(let ((.def_386 (and .def_363 .def_374)))
(let ((.def_387 (and .def_360 .def_386)))
(let ((.def_388 (and .def_282 .def_387)))
(let ((.def_389 (and .def_349 .def_388)))
(let ((.def_390 (and .def_356 .def_389)))
(let ((.def_391 (or .def_243 .def_390)))
(let ((.def_377 (* (- 1.0) b.time__AT2)))
(let ((.def_380 (+ b.delta__AT1 .def_377)))
(let ((.def_381 (+ b.time__AT1 .def_380)))
(let ((.def_382 (= .def_381 0.0 )))
(let ((.def_383 (or .def_302 .def_382)))
(let ((.def_384 (or b.EVENT.1__AT1 .def_383)))
(let ((.def_375 (or .def_301 .def_374)))
(let ((.def_376 (or b.EVENT.1__AT1 .def_375)))
(let ((.def_385 (and .def_376 .def_384)))
(let ((.def_392 (and .def_385 .def_391)))
(let ((.def_370 (= .def_302 b.event_is_timed__AT2)))
(let ((.def_368 (= b.event_is_timed__AT1 .def_301)))
(let ((.def_371 (and .def_368 .def_370)))
(let ((.def_357 (and .def_349 .def_356)))
(let ((.def_262 (<= 0.0 b.speed_y__AT1)))
(let ((.def_305 (not .def_262)))
(let ((.def_304 (= b.y__AT1 0.0 )))
(let ((.def_306 (and .def_304 .def_305)))
(let ((.def_358 (or .def_306 .def_357)))
(let ((.def_324 (or b.counter.0__AT1 .def_323)))
(let ((.def_322 (or .def_147 b.counter.0__AT2)))
(let ((.def_325 (and .def_322 .def_324)))
(let ((.def_326 (and .def_311 .def_325)))
(let ((.def_327 (or b.counter.1__AT1 .def_326)))
(let ((.def_321 (or .def_135 b.counter.1__AT2)))
(let ((.def_328 (and .def_321 .def_327)))
(let ((.def_341 (and .def_318 .def_328)))
(let ((.def_342 (or b.counter.2__AT1 .def_341)))
(let ((.def_336 (and .def_147 .def_311)))
(let ((.def_337 (or b.counter.1__AT1 .def_336)))
(let ((.def_338 (and .def_321 .def_337)))
(let ((.def_339 (and b.counter.2__AT2 .def_338)))
(let ((.def_340 (or .def_142 .def_339)))
(let ((.def_343 (and .def_340 .def_342)))
(let ((.def_344 (and b.counter.3__AT2 .def_343)))
(let ((.def_345 (or b.counter.3__AT1 .def_344)))
(let ((.def_329 (and b.counter.2__AT2 .def_328)))
(let ((.def_330 (or b.counter.2__AT1 .def_329)))
(let ((.def_315 (or b.counter.1__AT1 b.counter.1__AT2)))
(let ((.def_313 (and .def_311 b.counter.0__AT2)))
(let ((.def_314 (or .def_135 .def_313)))
(let ((.def_316 (and .def_314 .def_315)))
(let ((.def_319 (and .def_316 .def_318)))
(let ((.def_320 (or .def_142 .def_319)))
(let ((.def_331 (and .def_320 .def_330)))
(let ((.def_334 (and .def_331 .def_333)))
(let ((.def_157 (not b.counter.3__AT1)))
(let ((.def_335 (or .def_157 .def_334)))
(let ((.def_346 (and .def_335 .def_345)))
(let ((.def_108 (* (- 1.0) b.speed_y__AT1)))
(let ((.def_308 (* .def_108 .def_131)))
(let ((.def_309 (= b.speed_y__AT2 .def_308)))
(let ((.def_347 (and .def_309 .def_346)))
(let ((.def_307 (not .def_306)))
(let ((.def_348 (or .def_307 .def_347)))
(let ((.def_359 (and .def_348 .def_358)))
(let ((.def_361 (and .def_359 .def_360)))
(let ((.def_362 (and .def_282 .def_361)))
(let ((.def_364 (and .def_362 .def_363)))
(let ((.def_365 (or .def_301 .def_364)))
(let ((.def_366 (or b.EVENT.1__AT1 .def_365)))
(let ((.def_292 (* (- 1.0) b.y__AT2)))
(let ((.def_257 (* b.speed_y__AT1 b.delta__AT1)))
(let ((.def_296 (+ .def_257 .def_292)))
(let ((.def_255 (* b.delta__AT1 b.delta__AT1)))
(let ((.def_256 (* .def_72 .def_255)))
(let ((.def_297 (+ .def_256 .def_296)))
(let ((.def_298 (+ b.y__AT1 .def_297)))
(let ((.def_299 (= .def_298 0.0 )))
(let ((.def_284 (* .def_71 b.delta__AT1)))
(let ((.def_287 (+ .def_284 .def_286)))
(let ((.def_288 (+ b.speed_y__AT1 .def_287)))
(let ((.def_289 (= .def_288 0.0 )))
(let ((.def_277 (* (- 1.0) b.x__AT2)))
(let ((.def_275 (* b.speed_x__AT1 b.delta__AT1)))
(let ((.def_278 (+ .def_275 .def_277)))
(let ((.def_279 (+ b.x__AT1 .def_278)))
(let ((.def_280 (= .def_279 0.0 )))
(let ((.def_283 (and .def_280 .def_282)))
(let ((.def_290 (and .def_283 .def_289)))
(let ((.def_300 (and .def_290 .def_299)))
(let ((.def_303 (or .def_300 .def_302)))
(let ((.def_367 (and .def_303 .def_366)))
(let ((.def_372 (and .def_367 .def_371)))
(let ((.def_393 (and .def_372 .def_392)))
(let ((.def_402 (and .def_393 .def_401)))
(let ((.def_405 (and .def_402 .def_404)))
(let ((.def_409 (and .def_405 .def_408)))
(let ((.def_410 (and .def_243 .def_409)))
(let ((.def_427 (and .def_410 .def_426)))
(let ((.def_430 (and .def_427 .def_429)))
(let ((.def_263 (* .def_80 b.delta__AT1)))
(let ((.def_264 (+ b.speed_y__AT1 .def_263)))
(let ((.def_268 (<= .def_264 0.0 )))
(let ((.def_267 (<= b.speed_y__AT1 0.0 )))
(let ((.def_269 (and .def_267 .def_268)))
(let ((.def_265 (<= 0.0 .def_264)))
(let ((.def_266 (and .def_262 .def_265)))
(let ((.def_270 (or .def_266 .def_269)))
(let ((.def_258 (+ .def_256 .def_257)))
(let ((.def_259 (+ b.y__AT1 .def_258)))
(let ((.def_260 (<= 0.0 .def_259)))
(let ((.def_248 (<= 0.0 b.y__AT1)))
(let ((.def_261 (and .def_248 .def_260)))
(let ((.def_271 (and .def_261 .def_270)))
(let ((.def_272 (and .def_53 .def_271)))
(let ((.def_273 (and .def_61 .def_272)))
(let ((.def_249 (and .def_62 .def_248)))
(let ((.def_246 (or .def_243 .def_245)))
(let ((.def_236 (or .def_135 .def_147)))
(let ((.def_240 (or b.counter.3__AT1 .def_236)))
(let ((.def_237 (or b.counter.2__AT1 .def_236)))
(let ((.def_235 (or .def_142 .def_147)))
(let ((.def_238 (and .def_235 .def_237)))
(let ((.def_239 (or .def_157 .def_238)))
(let ((.def_241 (and .def_239 .def_240)))
(let ((.def_247 (and .def_241 .def_246)))
(let ((.def_250 (and .def_247 .def_249)))
(let ((.def_230 (<= 0.0 b.delta__AT0)))
(let ((.def_46 (not b.EVENT.0__AT0)))
(let ((.def_44 (not b.EVENT.1__AT0)))
(let ((.def_122 (and .def_44 .def_46)))
(let ((.def_123 (not .def_122)))
(let ((.def_231 (or .def_123 .def_230)))
(let ((.def_232 (or b.EVENT.1__AT0 .def_231)))
(let ((.def_179 (= b.counter.0__AT0 b.counter.0__AT1)))
(let ((.def_177 (= b.counter.1__AT0 b.counter.1__AT1)))
(let ((.def_175 (= b.counter.2__AT0 b.counter.2__AT1)))
(let ((.def_174 (= b.counter.3__AT0 b.counter.3__AT1)))
(let ((.def_176 (and .def_174 .def_175)))
(let ((.def_178 (and .def_176 .def_177)))
(let ((.def_180 (and .def_178 .def_179)))
(let ((.def_227 (or .def_123 .def_180)))
(let ((.def_228 (or b.EVENT.1__AT0 .def_227)))
(let ((.def_187 (= b.x__AT1 b.x__AT0)))
(let ((.def_184 (= b.y__AT0 b.y__AT1)))
(let ((.def_221 (and .def_184 .def_187)))
(let ((.def_104 (= b.speed_x__AT0 b.speed_x__AT1)))
(let ((.def_222 (and .def_104 .def_221)))
(let ((.def_173 (= b.speed_y__AT0 b.speed_y__AT1)))
(let ((.def_223 (and .def_173 .def_222)))
(let ((.def_218 (= b.delta__AT0 0.0 )))
(let ((.def_219 (and .def_122 .def_218)))
(let ((.def_220 (not .def_219)))
(let ((.def_224 (or .def_220 .def_223)))
(let ((.def_225 (or b.EVENT.1__AT0 .def_224)))
(let ((.def_198 (= b.time__AT0 b.time__AT1)))
(let ((.def_210 (and .def_187 .def_198)))
(let ((.def_211 (and .def_184 .def_210)))
(let ((.def_212 (and .def_104 .def_211)))
(let ((.def_213 (and .def_173 .def_212)))
(let ((.def_214 (and .def_180 .def_213)))
(let ((.def_215 (or .def_44 .def_214)))
(let ((.def_201 (* (- 1.0) b.time__AT1)))
(let ((.def_204 (+ b.delta__AT0 .def_201)))
(let ((.def_205 (+ b.time__AT0 .def_204)))
(let ((.def_206 (= .def_205 0.0 )))
(let ((.def_207 (or .def_123 .def_206)))
(let ((.def_208 (or b.EVENT.1__AT0 .def_207)))
(let ((.def_199 (or .def_122 .def_198)))
(let ((.def_200 (or b.EVENT.1__AT0 .def_199)))
(let ((.def_209 (and .def_200 .def_208)))
(let ((.def_216 (and .def_209 .def_215)))
(let ((.def_194 (= .def_123 b.event_is_timed__AT1)))
(let ((.def_192 (= b.event_is_timed__AT0 .def_122)))
(let ((.def_195 (and .def_192 .def_194)))
(let ((.def_181 (and .def_173 .def_180)))
(let ((.def_79 (<= 0.0 b.speed_y__AT0)))
(let ((.def_126 (not .def_79)))
(let ((.def_125 (= b.y__AT0 0.0 )))
(let ((.def_127 (and .def_125 .def_126)))
(let ((.def_182 (or .def_127 .def_181)))
(let ((.def_148 (or b.counter.0__AT0 .def_147)))
(let ((.def_27 (not b.counter.0__AT0)))
(let ((.def_146 (or .def_27 b.counter.0__AT1)))
(let ((.def_149 (and .def_146 .def_148)))
(let ((.def_150 (and .def_135 .def_149)))
(let ((.def_151 (or b.counter.1__AT0 .def_150)))
(let ((.def_25 (not b.counter.1__AT0)))
(let ((.def_145 (or .def_25 b.counter.1__AT1)))
(let ((.def_152 (and .def_145 .def_151)))
(let ((.def_165 (and .def_142 .def_152)))
(let ((.def_166 (or b.counter.2__AT0 .def_165)))
(let ((.def_160 (and .def_27 .def_135)))
(let ((.def_161 (or b.counter.1__AT0 .def_160)))
(let ((.def_162 (and .def_145 .def_161)))
(let ((.def_163 (and b.counter.2__AT1 .def_162)))
(let ((.def_30 (not b.counter.2__AT0)))
(let ((.def_164 (or .def_30 .def_163)))
(let ((.def_167 (and .def_164 .def_166)))
(let ((.def_168 (and b.counter.3__AT1 .def_167)))
(let ((.def_169 (or b.counter.3__AT0 .def_168)))
(let ((.def_153 (and b.counter.2__AT1 .def_152)))
(let ((.def_154 (or b.counter.2__AT0 .def_153)))
(let ((.def_139 (or b.counter.1__AT0 b.counter.1__AT1)))
(let ((.def_137 (and .def_135 b.counter.0__AT1)))
(let ((.def_138 (or .def_25 .def_137)))
(let ((.def_140 (and .def_138 .def_139)))
(let ((.def_143 (and .def_140 .def_142)))
(let ((.def_144 (or .def_30 .def_143)))
(let ((.def_155 (and .def_144 .def_154)))
(let ((.def_158 (and .def_155 .def_157)))
(let ((.def_33 (not b.counter.3__AT0)))
(let ((.def_159 (or .def_33 .def_158)))
(let ((.def_170 (and .def_159 .def_169)))
(let ((.def_129 (* (- 1.0) b.speed_y__AT0)))
(let ((.def_132 (* .def_129 .def_131)))
(let ((.def_133 (= b.speed_y__AT1 .def_132)))
(let ((.def_171 (and .def_133 .def_170)))
(let ((.def_128 (not .def_127)))
(let ((.def_172 (or .def_128 .def_171)))
(let ((.def_183 (and .def_172 .def_182)))
(let ((.def_185 (and .def_183 .def_184)))
(let ((.def_186 (and .def_104 .def_185)))
(let ((.def_188 (and .def_186 .def_187)))
(let ((.def_189 (or .def_122 .def_188)))
(let ((.def_190 (or b.EVENT.1__AT0 .def_189)))
(let ((.def_114 (* (- 1.0) b.y__AT1)))
(let ((.def_74 (* b.speed_y__AT0 b.delta__AT0)))
(let ((.def_117 (+ .def_74 .def_114)))
(let ((.def_69 (* b.delta__AT0 b.delta__AT0)))
(let ((.def_73 (* .def_69 .def_72)))
(let ((.def_118 (+ .def_73 .def_117)))
(let ((.def_119 (+ b.y__AT0 .def_118)))
(let ((.def_120 (= .def_119 0.0 )))
(let ((.def_106 (* b.delta__AT0 .def_71)))
(let ((.def_109 (+ .def_106 .def_108)))
(let ((.def_110 (+ b.speed_y__AT0 .def_109)))
(let ((.def_111 (= .def_110 0.0 )))
(let ((.def_96 (* (- 1.0) b.x__AT1)))
(let ((.def_100 (+ .def_96 b.x__AT0)))
(let ((.def_94 (* b.delta__AT0 b.speed_x__AT0)))
(let ((.def_101 (+ .def_94 .def_100)))
(let ((.def_102 (= .def_101 0.0 )))
(let ((.def_105 (and .def_102 .def_104)))
(let ((.def_112 (and .def_105 .def_111)))
(let ((.def_121 (and .def_112 .def_120)))
(let ((.def_124 (or .def_121 .def_123)))
(let ((.def_191 (and .def_124 .def_190)))
(let ((.def_196 (and .def_191 .def_195)))
(let ((.def_217 (and .def_196 .def_216)))
(let ((.def_226 (and .def_217 .def_225)))
(let ((.def_229 (and .def_226 .def_228)))
(let ((.def_233 (and .def_229 .def_232)))
(let ((.def_234 (and .def_44 .def_233)))
(let ((.def_251 (and .def_234 .def_250)))
(let ((.def_28 (and .def_25 .def_27)))
(let ((.def_31 (and .def_28 .def_30)))
(let ((.def_252 (and .def_31 .def_251)))
(let ((.def_81 (* b.delta__AT0 .def_80)))
(let ((.def_82 (+ b.speed_y__AT0 .def_81)))
(let ((.def_86 (<= .def_82 0.0 )))
(let ((.def_85 (<= b.speed_y__AT0 0.0 )))
(let ((.def_87 (and .def_85 .def_86)))
(let ((.def_83 (<= 0.0 .def_82)))
(let ((.def_84 (and .def_79 .def_83)))
(let ((.def_88 (or .def_84 .def_87)))
(let ((.def_75 (+ .def_73 .def_74)))
(let ((.def_76 (+ b.y__AT0 .def_75)))
(let ((.def_77 (<= 0.0 .def_76)))
(let ((.def_63 (<= 0.0 b.y__AT0)))
(let ((.def_78 (and .def_63 .def_77)))
(let ((.def_89 (and .def_78 .def_88)))
(let ((.def_90 (and .def_53 .def_89)))
(let ((.def_91 (and .def_61 .def_90)))
(let ((.def_64 (and .def_62 .def_63)))
(let ((.def_47 (or .def_44 .def_46)))
(let ((.def_37 (or .def_25 .def_27)))
(let ((.def_41 (or b.counter.3__AT0 .def_37)))
(let ((.def_38 (or b.counter.2__AT0 .def_37)))
(let ((.def_36 (or .def_27 .def_30)))
(let ((.def_39 (and .def_36 .def_38)))
(let ((.def_40 (or .def_33 .def_39)))
(let ((.def_42 (and .def_40 .def_41)))
(let ((.def_48 (and .def_42 .def_47)))
(let ((.def_65 (and .def_48 .def_64)))
(let ((.def_34 (and .def_31 .def_33)))
(let ((.def_22 (= b.speed_y__AT0 0.0 )))
(let ((.def_19 (= b.y__AT0 10.0 )))
(let ((.def_14 (= b.time__AT0 0.0 )))
(let ((.def_16 (and .def_14 b.event_is_timed__AT0)))
(let ((.def_20 (and .def_16 .def_19)))
(let ((.def_23 (and .def_20 .def_22)))
(let ((.def_35 (and .def_23 .def_34)))
(let ((.def_66 (and .def_35 .def_65)))
(let ((.def_7 (and .def_4 .def_6)))
(let ((.def_10 (and .def_7 .def_9)))
(let ((.def_11 (not .def_10)))
(let ((.def_67 (and .def_11 .def_66)))
(let ((.def_92 (and .def_67 .def_91)))
(let ((.def_253 (and .def_92 .def_252)))
(let ((.def_274 (and .def_253 .def_273)))
(let ((.def_431 (and .def_274 .def_430)))
(let ((.def_452 (and .def_431 .def_451)))
(let ((.def_603 (and .def_452 .def_602)))
(let ((.def_624 (and .def_603 .def_623)))
.def_624)))))))))))))))))))))))))))))))))))))))))))))))))))))))))))))))))))))))))))))))))))))))))))))))))))))))))))))))))))))))))))))))))))))))))))))))))))))))))))))))))))))))))))))))))))))))))))))))))))))))))))))))))))))))))))))))))))))))))))))))))))))))))))))))))))))))))))))))))))))))))))))))))))))))))))))))))))))))))))))))))))))))))))))))))))))))))))))))))))))))))))))))))))))))))))))))))))))))))))))))))))))))))))))))))))))))))))))))))))))))))))))))))))))))))))))))))))))))))))))))))))))))))))))))))))))))))))))))))))))))))))))))))))))))))))))))))
(check-sat)
(exit)
